106072 100 1100 72 84 95 92 73 88 95 74 89 79 99 95 70 97 91 76 79 84 97 94 95 76 75 86 93 84 94 73 72 73 75 86 97 92 94 97 75 96 88 96 89 70 90 99 98 90 79 80 84 81 78 73 73 92 92 71 93 93 99 78 80 71 94 81 75 76 85 97 90 78 97 98 76 94 71 73 81 89 99 98 92 84 87 87 78 91 84 73 77 83 72 93 89 93 76 89 96 80 91 88 47 71 50 55 31 76 53 59 59 42 53 38 31 78 72 71 53 55 53 35 71 36 35 34 71 44 48 32 70 39 36 64 57 69 47 56 56 59 49 69 75 45 34 45 59 30 43 66 76 53 40 43 35 35 74 43 70 76 70 42 49 37 64 38 40 70 48 65 61 36 62 78 55 63 35 41 50 35 51 53 38 48 78 65 34 50 51 75 61 72 33 72 35 55 74 43 78 38 68 68
